data/mip_solutions/furman_sahinidis/reduced_transportation/8sp1_gurobi.sol
Elapsed time: 0.131437063217
Nodes explored: 13
Upper bound: 9.0
Lower bound: 9.0
y[0,0]=1
y[0,1]=1
y[1,2]=1
y[2,1]=1
y[2,3]=1
y[2,4]=1
y[3,2]=1
y[3,3]=1
y[4,0]=1
q[0,0,1,2]=448.0
q[0,1,0,1]=746.0
q[0,1,0,2]=50.5
q[0,1,1,1]=928.0
q[0,1,1,5]=67.5
q[0,2,0,2]=957.5
q[0,2,1,2]=162.5
q[1,1,2,2]=3.0
q[1,1,2,3]=1397.0
q[1,2,2,2]=1050.0
q[1,3,2,3]=899.5
q[1,3,2,4]=325.5
q[2,2,1,2]=781.5
q[2,2,3,3]=928.5
q[2,3,1,3]=2320.0
q[2,3,1,4]=179.25
q[2,3,3,5]=350.75
q[2,4,1,4]=168.75
q[2,4,3,4]=258.75
q[2,5,1,5]=744.5
q[2,5,3,5]=253.0
q[2,6,3,6]=172.5
q[2,6,4,7]=112.5
q[3,3,2,3]=1213.5
q[3,3,3,3]=796.5
q[3,4,2,4]=201.0
q[4,0,0,1]=262.0
q[4,0,0,3]=1680.0
